p edge 50 129
e 1 12
e 1 13
e 1 16
e 1 19
e 1 23
e 1 27
e 1 28
e 1 30
e 1 36
e 1 42
e 1 49
e 2 6
e 2 27
e 2 45
e 2 47
e 3 12
e 3 16
e 3 23
e 3 26
e 3 29
e 3 33
e 3 34
e 3 49
e 4 21
e 4 25
e 5 33
e 5 45
e 6 32
e 6 34
e 7 18
e 7 38
e 8 28
e 8 46
e 8 49
e 9 11
e 9 27
e 9 30
e 9 44
e 9 45
e 10 46
e 11 19
e 11 24
e 11 26
e 11 31
e 11 41
e 11 42
e 12 20
e 12 28
e 12 38
e 13 31
e 13 41
e 13 45
e 13 47
e 13 48
e 14 28
e 14 29
e 14 50
e 15 28
e 15 30
e 15 33
e 15 36
e 15 39
e 15 41
e 15 45
e 15 48
e 16 42
e 16 50
e 17 21
e 17 32
e 17 39
e 18 22
e 18 31
e 18 38
e 18 42
e 18 44
e 18 45
e 18 49
e 18 50
e 19 25
e 19 38
e 19 43
e 20 38
e 21 22
e 21 28
e 21 35
e 21 44
e 21 45
e 21 46
e 21 47
e 22 25
e 22 28
e 22 32
e 22 35
e 22 36
e 22 48
e 23 30
e 23 45
e 23 47
e 24 37
e 24 38
e 25 37
e 26 43
e 26 50
e 27 36
e 27 46
e 27 50
e 28 31
e 28 36
e 28 42
e 29 32
e 29 45
e 30 36
e 30 43
e 30 44
e 31 36
e 31 40
e 33 37
e 34 44
e 35 40
e 35 50
e 37 40
e 37 48
e 39 49
e 40 44
e 40 46
e 41 42
e 41 44
e 42 43
e 43 46
